
Gurobi 11.0.0 (win64, Python) logging started Wed Mar 13 18:48:48 2024

Set parameter Username
Set parameter LogFile to value "gurobi.log"
Academic license - for non-commercial use only - expires 2025-02-10
